
Gurobi 9.5.0 (win64, Python) logging started Tue Aug  8 10:54:35 2023

Set parameter LogFile to value "data/small_training_set/problems/problem_0037_gurobi.log_gurobi.log"
Restricted license - for non-production use only - expires 2023-10-25

Gurobi 9.5.0 (win64, Python) logging started Mon Aug 28 10:28:42 2023

Set parameter LogFile to value "data/small_training_set/problems/problem_0037_gurobi.log_gurobi.log"
Restricted license - for non-production use only - expires 2023-10-25
